
Gurobi 8.1.1 (win64, Python) logging started 06/20/21 20:18:31


--------------------------------------------
Warning: your license will expire in 6 days
--------------------------------------------

Academic license - for non-commercial use only

Gurobi 8.1.1 (win64, Python) logging started 06/20/21 22:08:31


--------------------------------------------
Warning: your license will expire in 6 days
--------------------------------------------

Academic license - for non-commercial use only

Gurobi 8.1.1 (win64, Python) logging started 06/20/21 22:09:15


--------------------------------------------
Warning: your license will expire in 6 days
--------------------------------------------

Academic license - for non-commercial use only

Gurobi 8.1.1 (win64, Python) logging started 06/20/21 22:10:59


--------------------------------------------
Warning: your license will expire in 6 days
--------------------------------------------

Academic license - for non-commercial use only

Gurobi 8.1.1 (win64, Python) logging started 06/20/21 22:11:13


--------------------------------------------
Warning: your license will expire in 6 days
--------------------------------------------

Academic license - for non-commercial use only

Gurobi 8.1.1 (win64, Python) logging started 06/20/21 22:12:10


--------------------------------------------
Warning: your license will expire in 6 days
--------------------------------------------

Academic license - for non-commercial use only

Gurobi 8.1.1 (win64, Python) logging started 06/20/21 22:18:25


--------------------------------------------
Warning: your license will expire in 6 days
--------------------------------------------

Academic license - for non-commercial use only

Gurobi 8.1.1 (win64, Python) logging started 06/20/21 22:18:39


--------------------------------------------
Warning: your license will expire in 6 days
--------------------------------------------

Academic license - for non-commercial use only

Gurobi 8.1.1 (win64, Python) logging started 06/20/21 22:24:45


--------------------------------------------
Warning: your license will expire in 6 days
--------------------------------------------

Academic license - for non-commercial use only

Gurobi 8.1.1 (win64, Python) logging started 06/20/21 22:25:29


--------------------------------------------
Warning: your license will expire in 6 days
--------------------------------------------

Academic license - for non-commercial use only

Gurobi 8.1.1 (win64, Python) logging started 06/20/21 22:27:19


--------------------------------------------
Warning: your license will expire in 6 days
--------------------------------------------

Academic license - for non-commercial use only

Gurobi 8.1.1 (win64, Python) logging started 06/20/21 22:32:56


--------------------------------------------
Warning: your license will expire in 6 days
--------------------------------------------

Academic license - for non-commercial use only

Gurobi 8.1.1 (win64, Python) logging started 06/20/21 22:34:23


--------------------------------------------
Warning: your license will expire in 6 days
--------------------------------------------

Academic license - for non-commercial use only

Gurobi 8.1.1 (win64, Python) logging started 06/20/21 22:44:37


--------------------------------------------
Warning: your license will expire in 6 days
--------------------------------------------

Academic license - for non-commercial use only

Gurobi 8.1.1 (win64, Python) logging started 06/20/21 22:47:55


--------------------------------------------
Warning: your license will expire in 6 days
--------------------------------------------

Academic license - for non-commercial use only

Gurobi 8.1.1 (win64, Python) logging started 06/20/21 22:49:07


--------------------------------------------
Warning: your license will expire in 6 days
--------------------------------------------

Academic license - for non-commercial use only

Gurobi 8.1.1 (win64, Python) logging started 06/20/21 22:51:00


--------------------------------------------
Warning: your license will expire in 6 days
--------------------------------------------

Academic license - for non-commercial use only

Gurobi 8.1.1 (win64, Python) logging started 06/20/21 22:52:52


--------------------------------------------
Warning: your license will expire in 6 days
--------------------------------------------

Academic license - for non-commercial use only

Gurobi 8.1.1 (win64, Python) logging started 06/20/21 23:00:03


--------------------------------------------
Warning: your license will expire in 6 days
--------------------------------------------

Academic license - for non-commercial use only

Gurobi 8.1.1 (win64, Python) logging started 06/21/21 13:13:23


--------------------------------------------
Warning: your license will expire in 5 days
--------------------------------------------

Academic license - for non-commercial use only

Gurobi 8.1.1 (win64, Python) logging started 06/21/21 13:16:28


--------------------------------------------
Warning: your license will expire in 5 days
--------------------------------------------

Academic license - for non-commercial use only

Gurobi 8.1.1 (win64, Python) logging started 06/21/21 13:20:04


--------------------------------------------
Warning: your license will expire in 5 days
--------------------------------------------

Academic license - for non-commercial use only

Gurobi 8.1.1 (win64, Python) logging started 06/21/21 13:50:29


--------------------------------------------
Warning: your license will expire in 5 days
--------------------------------------------

Academic license - for non-commercial use only

Gurobi 8.1.1 (win64, Python) logging started 06/21/21 14:10:36


--------------------------------------------
Warning: your license will expire in 5 days
--------------------------------------------

Academic license - for non-commercial use only

Gurobi 8.1.1 (win64, Python) logging started 06/21/21 14:12:44


--------------------------------------------
Warning: your license will expire in 5 days
--------------------------------------------

Academic license - for non-commercial use only

Gurobi 8.1.1 (win64, Python) logging started 06/21/21 14:23:27


--------------------------------------------
Warning: your license will expire in 5 days
--------------------------------------------

Academic license - for non-commercial use only

Gurobi 8.1.1 (win64, Python) logging started 06/21/21 14:23:55


--------------------------------------------
Warning: your license will expire in 5 days
--------------------------------------------

Academic license - for non-commercial use only

Gurobi 8.1.1 (win64, Python) logging started 06/21/21 14:24:34


--------------------------------------------
Warning: your license will expire in 5 days
--------------------------------------------

Academic license - for non-commercial use only

Gurobi 8.1.1 (win64, Python) logging started 06/21/21 14:25:35


--------------------------------------------
Warning: your license will expire in 5 days
--------------------------------------------

Academic license - for non-commercial use only

Gurobi 8.1.1 (win64, Python) logging started 06/21/21 14:34:14


--------------------------------------------
Warning: your license will expire in 5 days
--------------------------------------------

Academic license - for non-commercial use only

Gurobi 8.1.1 (win64, Python) logging started 06/21/21 14:46:09


--------------------------------------------
Warning: your license will expire in 5 days
--------------------------------------------

Academic license - for non-commercial use only

Gurobi 8.1.1 (win64, Python) logging started 06/21/21 14:46:43


--------------------------------------------
Warning: your license will expire in 5 days
--------------------------------------------

Academic license - for non-commercial use only

Gurobi 8.1.1 (win64, Python) logging started 06/21/21 14:47:33


--------------------------------------------
Warning: your license will expire in 5 days
--------------------------------------------

Academic license - for non-commercial use only

Gurobi 8.1.1 (win64, Python) logging started 06/21/21 14:48:12


--------------------------------------------
Warning: your license will expire in 5 days
--------------------------------------------

Academic license - for non-commercial use only

Gurobi 8.1.1 (win64, Python) logging started 06/21/21 14:49:37


--------------------------------------------
Warning: your license will expire in 5 days
--------------------------------------------

Academic license - for non-commercial use only

Gurobi 8.1.1 (win64, Python) logging started 06/21/21 14:49:48


--------------------------------------------
Warning: your license will expire in 5 days
--------------------------------------------

Academic license - for non-commercial use only

Gurobi 8.1.1 (win64, Python) logging started 06/21/21 14:50:49


--------------------------------------------
Warning: your license will expire in 5 days
--------------------------------------------

Academic license - for non-commercial use only

Gurobi 8.1.1 (win64, Python) logging started 06/21/21 14:53:08


--------------------------------------------
Warning: your license will expire in 5 days
--------------------------------------------

Academic license - for non-commercial use only

Gurobi 8.1.1 (win64, Python) logging started 06/21/21 14:54:46


--------------------------------------------
Warning: your license will expire in 5 days
--------------------------------------------

Academic license - for non-commercial use only

Gurobi 8.1.1 (win64, Python) logging started 06/21/21 14:58:47


--------------------------------------------
Warning: your license will expire in 5 days
--------------------------------------------

Academic license - for non-commercial use only

Gurobi 8.1.1 (win64, Python) logging started 06/21/21 15:02:39


--------------------------------------------
Warning: your license will expire in 5 days
--------------------------------------------

Academic license - for non-commercial use only

Gurobi 8.1.1 (win64, Python) logging started 06/21/21 15:05:27


--------------------------------------------
Warning: your license will expire in 5 days
--------------------------------------------

Academic license - for non-commercial use only

Gurobi 8.1.1 (win64, Python) logging started 06/21/21 15:08:59


--------------------------------------------
Warning: your license will expire in 5 days
--------------------------------------------

Academic license - for non-commercial use only

Gurobi 8.1.1 (win64, Python) logging started 06/21/21 15:12:36


--------------------------------------------
Warning: your license will expire in 5 days
--------------------------------------------

Academic license - for non-commercial use only

Gurobi 8.1.1 (win64, Python) logging started 06/21/21 15:49:18


--------------------------------------------
Warning: your license will expire in 5 days
--------------------------------------------

Academic license - for non-commercial use only

Gurobi 8.1.1 (win64, Python) logging started 06/21/21 15:50:41


--------------------------------------------
Warning: your license will expire in 5 days
--------------------------------------------

Academic license - for non-commercial use only

Gurobi 8.1.1 (win64, Python) logging started 06/21/21 15:51:47


--------------------------------------------
Warning: your license will expire in 5 days
--------------------------------------------

Academic license - for non-commercial use only

Gurobi 8.1.1 (win64, Python) logging started 06/21/21 16:04:06


--------------------------------------------
Warning: your license will expire in 5 days
--------------------------------------------

Academic license - for non-commercial use only

Gurobi 8.1.1 (win64, Python) logging started 06/21/21 16:04:11


--------------------------------------------
Warning: your license will expire in 5 days
--------------------------------------------

Academic license - for non-commercial use only

Gurobi 8.1.1 (win64, Python) logging started 06/21/21 16:14:57


--------------------------------------------
Warning: your license will expire in 5 days
--------------------------------------------

Academic license - for non-commercial use only

Gurobi 8.1.1 (win64, Python) logging started 06/21/21 16:15:24


--------------------------------------------
Warning: your license will expire in 5 days
--------------------------------------------

Academic license - for non-commercial use only

Gurobi 8.1.1 (win64, Python) logging started 06/21/21 16:26:28


--------------------------------------------
Warning: your license will expire in 5 days
--------------------------------------------

Academic license - for non-commercial use only

Gurobi 8.1.1 (win64, Python) logging started 06/21/21 16:27:07


--------------------------------------------
Warning: your license will expire in 5 days
--------------------------------------------

Academic license - for non-commercial use only

Gurobi 8.1.1 (win64, Python) logging started 06/21/21 16:34:28


--------------------------------------------
Warning: your license will expire in 5 days
--------------------------------------------

Academic license - for non-commercial use only

Gurobi 8.1.1 (win64, Python) logging started 06/21/21 16:49:17


--------------------------------------------
Warning: your license will expire in 5 days
--------------------------------------------

Academic license - for non-commercial use only

Gurobi 8.1.1 (win64, Python) logging started 06/21/21 16:49:34


--------------------------------------------
Warning: your license will expire in 5 days
--------------------------------------------

Academic license - for non-commercial use only

Gurobi 8.1.1 (win64, Python) logging started 06/21/21 16:51:11


--------------------------------------------
Warning: your license will expire in 5 days
--------------------------------------------

Academic license - for non-commercial use only

Gurobi 8.1.1 (win64, Python) logging started 06/21/21 16:51:41


--------------------------------------------
Warning: your license will expire in 5 days
--------------------------------------------

Academic license - for non-commercial use only

Gurobi 8.1.1 (win64, Python) logging started 06/21/21 17:02:56


--------------------------------------------
Warning: your license will expire in 5 days
--------------------------------------------

Academic license - for non-commercial use only

Gurobi 8.1.1 (win64, Python) logging started 06/21/21 17:03:21


--------------------------------------------
Warning: your license will expire in 5 days
--------------------------------------------

Academic license - for non-commercial use only

Gurobi 8.1.1 (win64, Python) logging started 06/21/21 17:03:59


--------------------------------------------
Warning: your license will expire in 5 days
--------------------------------------------

Academic license - for non-commercial use only

Gurobi 8.1.1 (win64, Python) logging started 06/21/21 17:04:35


--------------------------------------------
Warning: your license will expire in 5 days
--------------------------------------------

Academic license - for non-commercial use only

Gurobi 8.1.1 (win64, Python) logging started 06/21/21 17:04:59


--------------------------------------------
Warning: your license will expire in 5 days
--------------------------------------------

Academic license - for non-commercial use only

Gurobi 8.1.1 (win64, Python) logging started 06/21/21 17:13:45


--------------------------------------------
Warning: your license will expire in 5 days
--------------------------------------------

Academic license - for non-commercial use only

Gurobi 8.1.1 (win64, Python) logging started 06/21/21 17:15:13


--------------------------------------------
Warning: your license will expire in 5 days
--------------------------------------------

Academic license - for non-commercial use only

Gurobi 8.1.1 (win64, Python) logging started 06/21/21 17:23:13


--------------------------------------------
Warning: your license will expire in 5 days
--------------------------------------------

Academic license - for non-commercial use only

Gurobi 8.1.1 (win64, Python) logging started 06/21/21 17:25:14


--------------------------------------------
Warning: your license will expire in 5 days
--------------------------------------------

Academic license - for non-commercial use only

Gurobi 8.1.1 (win64, Python) logging started 06/21/21 17:33:03


--------------------------------------------
Warning: your license will expire in 5 days
--------------------------------------------

Academic license - for non-commercial use only

Gurobi 8.1.1 (win64, Python) logging started 06/21/21 17:33:33


--------------------------------------------
Warning: your license will expire in 5 days
--------------------------------------------

Academic license - for non-commercial use only

Gurobi 8.1.1 (win64, Python) logging started 06/21/21 17:34:05


--------------------------------------------
Warning: your license will expire in 5 days
--------------------------------------------

Academic license - for non-commercial use only

Gurobi 8.1.1 (win64, Python) logging started 06/21/21 17:35:13


--------------------------------------------
Warning: your license will expire in 5 days
--------------------------------------------

Academic license - for non-commercial use only

Gurobi 8.1.1 (win64, Python) logging started 06/21/21 17:36:14


--------------------------------------------
Warning: your license will expire in 5 days
--------------------------------------------

Academic license - for non-commercial use only

Gurobi 8.1.1 (win64, Python) logging started 06/21/21 17:52:52


--------------------------------------------
Warning: your license will expire in 5 days
--------------------------------------------

Academic license - for non-commercial use only

Gurobi 8.1.1 (win64, Python) logging started 06/21/21 17:53:18


--------------------------------------------
Warning: your license will expire in 5 days
--------------------------------------------

Academic license - for non-commercial use only

Gurobi 8.1.1 (win64, Python) logging started 06/21/21 20:32:23


--------------------------------------------
Warning: your license will expire in 5 days
--------------------------------------------

Academic license - for non-commercial use only

Gurobi 8.1.1 (win64, Python) logging started 06/21/21 21:00:49


--------------------------------------------
Warning: your license will expire in 5 days
--------------------------------------------

Academic license - for non-commercial use only

Gurobi 8.1.1 (win64, Python) logging started 06/21/21 21:25:09


--------------------------------------------
Warning: your license will expire in 5 days
--------------------------------------------

Academic license - for non-commercial use only

Gurobi 8.1.1 (win64, Python) logging started 06/21/21 22:40:30


--------------------------------------------
Warning: your license will expire in 5 days
--------------------------------------------

Academic license - for non-commercial use only

Gurobi 8.1.1 (win64, Python) logging started 06/21/21 22:40:58


--------------------------------------------
Warning: your license will expire in 5 days
--------------------------------------------

Academic license - for non-commercial use only

Gurobi 8.1.1 (win64, Python) logging started 06/21/21 22:41:51


--------------------------------------------
Warning: your license will expire in 5 days
--------------------------------------------

Academic license - for non-commercial use only

Gurobi 8.1.1 (win64, Python) logging started 06/21/21 22:41:58


--------------------------------------------
Warning: your license will expire in 5 days
--------------------------------------------

Academic license - for non-commercial use only

Gurobi 8.1.1 (win64, Python) logging started 06/21/21 22:42:27


--------------------------------------------
Warning: your license will expire in 5 days
--------------------------------------------

Academic license - for non-commercial use only

Gurobi 8.1.1 (win64, Python) logging started 06/21/21 22:46:41


--------------------------------------------
Warning: your license will expire in 5 days
--------------------------------------------

Academic license - for non-commercial use only

Gurobi 8.1.1 (win64, Python) logging started 06/21/21 22:46:53


--------------------------------------------
Warning: your license will expire in 5 days
--------------------------------------------

Academic license - for non-commercial use only

Gurobi 8.1.1 (win64, Python) logging started 06/21/21 22:46:59


--------------------------------------------
Warning: your license will expire in 5 days
--------------------------------------------

Academic license - for non-commercial use only

Gurobi 8.1.1 (win64, Python) logging started 06/21/21 23:01:30


--------------------------------------------
Warning: your license will expire in 5 days
--------------------------------------------

Academic license - for non-commercial use only

Gurobi 8.1.1 (win64, Python) logging started 06/22/21 00:15:21


--------------------------------------------
Warning: your license will expire in 4 days
--------------------------------------------

Academic license - for non-commercial use only

Gurobi 8.1.1 (win64, Python) logging started 06/22/21 00:20:59


--------------------------------------------
Warning: your license will expire in 4 days
--------------------------------------------

Academic license - for non-commercial use only

Gurobi 8.1.1 (win64, Python) logging started 06/22/21 00:21:34


--------------------------------------------
Warning: your license will expire in 4 days
--------------------------------------------

Academic license - for non-commercial use only

Gurobi 8.1.1 (win64, Python) logging started 06/22/21 00:54:45


--------------------------------------------
Warning: your license will expire in 4 days
--------------------------------------------

Academic license - for non-commercial use only

Gurobi 8.1.1 (win64, Python) logging started 06/22/21 01:13:02


--------------------------------------------
Warning: your license will expire in 4 days
--------------------------------------------

Academic license - for non-commercial use only

Gurobi 8.1.1 (win64, Python) logging started 06/22/21 01:35:19


--------------------------------------------
Warning: your license will expire in 4 days
--------------------------------------------

Academic license - for non-commercial use only
